Problem:    
Rows:       260
Columns:    89 (72 integer, 72 binary)
Non-zeros:  812
Status:     INTEGER OPTIMAL
Objective:  value = 2.820512 (MINimum)

   No.   Row name        Activity     Lower bound   Upper bound
------ ------------    ------------- ------------- -------------
     1 r.5                   1002.82             0               
     2 r.6                  -999.483      -999.518               
     3 r.7                   2.82051             0               
     4 r.8                  0.982445      -998.965               
     5 r.9                   1002.82             0               
     6 r.10                 -999.018      -999.535               
     7 r.11                  2.82051             0               
     8 r.12                 0.982445       -998.99               
     9 r.13                  2.82051             0               
    10 r.14                 -999.904      -999.939               
    11 r.15                  1002.82             0               
    12 r.16                 -999.018      -999.845               
    13 r.17                  2.82051             0               
    14 r.18                 -999.869      -999.904               
    15 r.19                  1002.82             0               
    16 r.20                 -999.172      -999.774               
    17 r.21                  2.82051             0               
    18 r.22                 -999.757      -999.793               
    19 r.23                  1002.82             0               
    20 r.24                 -999.539      -999.574               
    21 r.25                  1002.82             0               
    22 r.26                 -999.965      -999.965               
    23 r.27                  2.82051             0               
    24 r.28                   0.0352      -999.926               
    25 r.29                  1002.82             0               
    26 r.30                 -997.179      -998.162               
    27 r.31                  2.82051             0               
    28 r.32                  2.82051       -996.11               
    29 r.33                  2.82051             0               
    30 r.34                  2.82051      -999.579               
    31 r.35                  1002.82             0               
    32 r.36                 -997.179      -999.073               
    33 r.37                        1             1             = 
    34 r.38                        1             1             = 
    35 r.39                        1             1             = 
    36 r.40                        1             1             = 
    37 r.41                        1             1             = 
    38 r.42                        1             1             = 
    39 r.43                        1             1             = 
    40 r.44                        1             1             = 
    41 r.45                        2             2               
    42 r.46                       -2         -1001               
    43 r.47                 -999.535      -999.535               
    44 r.48                     1000             2               
    45 r.49                    -1000         -1001               
    46 r.50                     2000       -998.99               
    47 r.51                     1001             2               
    48 r.52                    -1001         -1001               
    49 r.53                  999.578      -999.939               
    50 r.54                     1001             2               
    51 r.55                    -1001         -1001               
    52 r.56                     2000      -999.845               
    53 r.57                     1001             2               
    54 r.58                    -1001         -1001               
    55 r.59                  999.614      -999.904               
    56 r.60                     1001             2               
    57 r.61                    -1001         -1001               
    58 r.62                  1999.85      -999.774               
    59 r.63                     1001             2               
    60 r.64                    -1001         -1001               
    61 r.65                  999.725      -999.793               
    62 r.66                     1001             2               
    63 r.67                    -1001         -1001               
    64 r.68                  1999.48      -999.574               
    65 r.69                 -999.518      -999.518               
    66 r.70                 0.947245      -998.965               
    67 r.71                 -999.518      -999.518               
    68 r.72                 0.947245      -998.965               
    69 r.73                 -997.697      -998.162               
    70 r.74                  2.30304       -996.11               
    71 r.75                 -998.162      -998.162               
    72 r.76                  1.83807       -996.11               
    73 r.77                  2.30304      -999.579               
    74 r.78                 -997.697      -999.073               
    75 r.79                  1.83807      -999.579               
    76 r.80                 -998.162      -999.073               
    77 r.81                        2             2               
    78 r.82                       -2         -1001               
    79 r.83                  999.535      0.482267               
    80 r.84                     1000             2               
    81 r.85                    -1000         -1001               
    82 r.86                     2000       1.03535               
    83 r.87                     1001             2               
    84 r.88                    -1001         -1001               
    85 r.89                  999.113      -999.939               
    86 r.90                     1001             2               
    87 r.91                    -1001         -1001               
    88 r.92                     2000      -999.845               
    89 r.93                     1001             2               
    90 r.94                    -1001         -1001               
    91 r.95                  999.149      -999.904               
    92 r.96                     1001             2               
    93 r.97                    -1001         -1001               
    94 r.98                  1999.85      -999.774               
    95 r.99                     1001             2               
    96 r.100                   -1001         -1001               
    97 r.101                  999.26      -999.793               
    98 r.102                    1001             2               
    99 r.103                   -1001         -1001               
   100 r.104                 1999.48      -999.574               
   101 r.105                -999.053      -999.535               
   102 r.106                0.947245       -998.99               
   103 r.107                -999.053      -999.535               
   104 r.108                0.947245       -998.99               
   105 r.109                -998.162      -998.162               
   106 r.110                 1.83807       -996.11               
   107 r.111                -998.162      -998.162               
   108 r.112                 1.83807       -996.11               
   109 r.113                    1001             2               
   110 r.114                   -1001         -1001               
   111 r.115                 2001.84      -999.579               
   112 r.116                    1001             2               
   113 r.117                   -1001         -1001               
   114 r.118                 2001.84      -999.073               
   115 r.119                    1001             2               
   116 r.120                   -1001         -1001               
   117 r.121                 3000.42      0.482267               
   118 r.122                    1001             2               
   119 r.123                   -1001         -1001               
   120 r.124                    2000       1.03535               
   121 r.125                    1001             2               
   122 r.126                   -1001         -1001               
   123 r.127                 3000.89      0.464978               
   124 r.128                    1001             2               
   125 r.129                   -1001         -1001               
   126 r.130                    2000       1.01046               
   127 r.131                    1000             2               
   128 r.132                   -1000         -1001               
   129 r.133                 2000.04      -999.904               
   130 r.134                       2             2               
   131 r.135                      -2         -1001               
   132 r.136               -0.154747      -999.774               
   133 r.137                    1000             2               
   134 r.138                   -1000         -1001               
   135 r.139                 2000.15      -999.793               
   136 r.140                       2             2               
   137 r.141                      -2         -1001               
   138 r.142               -0.521532      -999.574               
   139 r.143                -999.939      -999.939               
   140 r.144                -999.053      -999.845               
   141 r.145                -999.939      -999.939               
   142 r.146                -999.053      -999.845               
   143 r.147                 2.72481      -998.162               
   144 r.148                 1002.72       -996.11               
   145 r.149                -998.162      -998.162               
   146 r.150                 1.83807       -996.11               
   147 r.151                 1002.72      -999.579               
   148 r.152                 2.72481      -999.073               
   149 r.153                 1.83807      -999.579               
   150 r.154                -998.162      -999.073               
   151 r.155                    1001             2               
   152 r.156                   -1001         -1001               
   153 r.157                 3000.39      0.482267               
   154 r.158                    1001             2               
   155 r.159                   -1001         -1001               
   156 r.160                 2000.15       1.03535               
   157 r.161                    1001             2               
   158 r.162                   -1001         -1001               
   159 r.163                 3000.85      0.464978               
   160 r.164                    1001             2               
   161 r.165                   -1001         -1001               
   162 r.166                 2000.15       1.01046               
   163 r.167                    1000             2               
   164 r.168                   -1000         -1001               
   165 r.169                 1999.96        0.0605               
   166 r.170                       2             2               
   167 r.171                      -2         -1001               
   168 r.172                0.154747      0.154747               
   169 r.173                    1000             2               
   170 r.174                   -1000         -1001               
   171 r.175                 2000.11      -999.793               
   172 r.176                       2             2               
   173 r.177                      -2         -1001               
   174 r.178               -0.366785      -999.574               
   175 r.179                -999.904      -999.904               
   176 r.180                -999.208      -999.774               
   177 r.181                -999.904      -999.904               
   178 r.182                -999.208      -999.774               
   179 r.183                 2.68921      -998.162               
   180 r.184                 1002.69       -996.11               
   181 r.185                -998.007      -998.162               
   182 r.186                 1.99281       -996.11               
   183 r.187                    1000             2               
   184 r.188                   -1000         -1001               
   185 r.189                 3002.69      -999.579               
   186 r.190                       2             2               
   187 r.191                      -2         -1001               
   188 r.192                -998.007      -999.073               
   189 r.193                    1001             2               
   190 r.194                   -1001         -1001               
   191 r.195                 3000.27      0.482267               
   192 r.196                    1001             2               
   193 r.197                   -1001         -1001               
   194 r.198                 2000.52       1.03535               
   195 r.199                    1001             2               
   196 r.200                   -1001         -1001               
   197 r.201                 3000.74      0.464978               
   198 r.202                    1001             2               
   199 r.203                   -1001         -1001               
   200 r.204                 2000.52       1.01046               
   201 r.205                    1000             2               
   202 r.206                   -1000         -1001               
   203 r.207                 1999.85        0.0605               
   204 r.208                       2             2               
   205 r.209                      -2         -1001               
   206 r.210                0.521532      0.154747               
   207 r.211                    1000             2               
   208 r.212                   -1000         -1001               
   209 r.213                 1999.89        0.0961               
   210 r.214                       2             2               
   211 r.215                      -2         -1001               
   212 r.216                0.366785      0.225518               
   213 r.217                -999.793      -999.793               
   214 r.218                -999.574      -999.574               
   215 r.219                -999.793      -999.793               
   216 r.220                -999.574      -999.574               
   217 r.221                    1001             2               
   218 r.222                   -1001         -1001               
   219 r.223                 3002.58      -998.162               
   220 r.224                    1001             2               
   221 r.225                   -1001         -1001               
   222 r.226                 2002.36       -996.11               
   223 r.227                 1002.58      -999.579               
   224 r.228                 2.57782      -999.073               
   225 r.229                  2.3596      -999.579               
   226 r.230                 -997.64      -999.073               
   227 r.231                -997.215      -998.162               
   228 r.232                 2.78531       -996.11               
   229 r.233                -997.215      -998.162               
   230 r.234                 2.78531       -996.11               
   231 r.235                    1001             2               
   232 r.236                   -1001         -1001               
   233 r.237                 997.422      0.207489               
   234 r.238                    1001             2               
   235 r.239                   -1001         -1001               
   236 r.240                 1997.64      0.425713               
   237 r.241                    1001             2               
   238 r.242                   -1001         -1001               
   239 r.243                    2000      -999.579               
   240 r.244                    1001             2               
   241 r.245                   -1001         -1001               
   242 r.246                    2000      -999.073               
   243 r.247                    1001             2               
   244 r.248                   -1001         -1001               
   245 r.249                 1998.16      0.464978               
   246 r.250                    1001             2               
   247 r.251                   -1001         -1001               
   248 r.252                 1998.16       1.01046               
   249 r.253                    1000             2               
   250 r.254                   -1000         -1001               
   251 r.255                 997.311        0.0961               
   252 r.256                       2             2               
   253 r.257                      -2         -1001               
   254 r.258                 998.007      0.225518               
   255 r.259                    1001             2               
   256 r.260                   -1001         -1001               
   257 r.261                    2000       1.83807               
   258 r.262                    1001             2               
   259 r.263                   -1001         -1001               
   260 r.264                    2000       3.88994               

   No. Column name       Activity     Lower bound   Upper bound
------ ------------    ------------- ------------- -------------
     1 tt                    2.82051             0               
     2 s_1_1        *              1             0             1 
     3 t_1_1                 2.30304             0               
     4 s_1_8        *              0             0             1 
     5 s_1_7        *              1             0             1 
     6 s_2_1        *              0             0             1 
     7 t_2_1                 1.83807             0               
     8 s_2_8        *              1             0             1 
     9 s_2_7        *              0             0             1 
    10 s_1_2        *              1             0             1 
    11 t_1_2                 1.83807             0               
    12 s_2_2        *              0             0             1 
    13 t_2_2                 1.83807             0               
    14 s_1_3        *              0             0             1 
    15 t_1_3                 1002.72             0               
    16 s_2_3        *              1             0             1 
    17 t_2_3                 1.83807             0               
    18 s_1_4        *              0             0             1 
    19 t_1_4                 1002.69             0               
    20 s_2_4        *              1             0             1 
    21 t_2_4                 1.99281             0               
    22 s_1_5        *              0             0             1 
    23 t_1_5                 1002.58             0               
    24 s_2_5        *              1             0             1 
    25 t_2_5                  2.3596             0               
    26 s_1_6        *              1             0             1 
    27 t_1_6                 2.78531             0               
    28 s_2_6        *              0             0             1 
    29 t_2_6                 2.78531             0               
    30 t_1_7                       0             0               
    31 t_2_7                       0             0               
    32 t_1_8                       0             0               
    33 t_2_8                       0             0               
    34 r_1_1_2      *              0             0             1 
    35 u_1_1_2      *              1             0             1 
    36 r_2_1_2      *              1             0             1 
    37 u_2_1_2      *              0             0             1 
    38 r_1_1_3      *              1             0             1 
    39 u_1_1_3      *              0             0             1 
    40 r_2_1_3      *              1             0             1 
    41 u_2_1_3      *              0             0             1 
    42 r_1_1_4      *              1             0             1 
    43 u_1_1_4      *              0             0             1 
    44 r_2_1_4      *              1             0             1 
    45 u_2_1_4      *              0             0             1 
    46 r_1_1_5      *              1             0             1 
    47 u_1_1_5      *              0             0             1 
    48 r_2_1_5      *              1             0             1 
    49 u_2_1_5      *              0             0             1 
    50 r_1_2_3      *              1             0             1 
    51 u_1_2_3      *              0             0             1 
    52 r_2_2_3      *              1             0             1 
    53 u_2_2_3      *              0             0             1 
    54 r_1_2_4      *              1             0             1 
    55 u_1_2_4      *              0             0             1 
    56 r_2_2_4      *              1             0             1 
    57 u_2_2_4      *              0             0             1 
    58 r_1_2_5      *              1             0             1 
    59 u_1_2_5      *              0             0             1 
    60 r_2_2_5      *              1             0             1 
    61 u_2_2_5      *              0             0             1 
    62 r_1_2_8      *              1             0             1 
    63 u_1_2_8      *              0             0             1 
    64 r_2_2_8      *              1             0             1 
    65 u_2_2_8      *              0             0             1 
    66 r_1_3_4      *              1             0             1 
    67 u_1_3_4      *              0             0             1 
    68 r_2_3_4      *              0             0             1 
    69 u_2_3_4      *              0             0             1 
    70 r_1_3_5      *              1             0             1 
    71 u_1_3_5      *              0             0             1 
    72 r_2_3_5      *              0             0             1 
    73 u_2_3_5      *              0             0             1 
    74 r_1_4_5      *              1             0             1 
    75 u_1_4_5      *              0             0             1 
    76 r_2_4_5      *              0             0             1 
    77 u_2_4_5      *              0             0             1 
    78 r_1_4_8      *              1             0             1 
    79 u_1_4_8      *              0             0             1 
    80 r_2_4_8      *              0             0             1 
    81 u_2_4_8      *              1             0             1 
    82 r_1_5_7      *              1             0             1 
    83 u_1_5_7      *              0             0             1 
    84 r_2_5_7      *              1             0             1 
    85 u_2_5_7      *              0             0             1 
    86 r_1_7_8      *              1             0             1 
    87 u_1_7_8      *              0             0             1 
    88 r_2_7_8      *              1             0             1 
    89 u_2_7_8      *              0             0             1 

Integer feasibility conditions:

KKT.PE: max.abs.err = 4.55e-13 on row 209
        max.rel.err = 7.57e-17 on row 209
        High quality

KKT.PB: max.abs.err = 2.78e-17 on row 168
        max.rel.err = 2.40e-17 on row 168
        High quality

End of output
